p edge 88 146
c almost 3-colorable graph from Kuzunori Mizuno mizuno@algor.is.tsukaba.ac.jp
e 1 3
e 1 7
e 1 11
e 1 17
e 2 5
e 2 24
e 2 25
e 2 77
e 3 4
e 3 78
e 3 79
e 4 14
e 4 26
e 4 80
e 5 7
e 5 9
e 5 10
e 6 7
e 6 8
e 6 18
e 6 19
e 8 9
e 8 10
e 9 10
e 11 13
e 11 60
e 11 61
e 12 13
e 12 16
e 12 56
e 12 59
e 13 33
e 13 34
e 14 15
e 14 39
e 14 40
e 15 21
e 15 22
e 15 50
e 16 51
e 16 52
e 16 62
e 17 18
e 17 19
e 18 19
e 20 21
e 20 22
e 20 57
e 20 58
e 21 75
e 21 76
e 22 74
e 23 24
e 23 27
e 23 28
e 23 53
e 24 30
e 24 31
e 25 29
e 25 42
e 25 43
e 26 28
e 26 35
e 27 28
e 27 36
e 27 37
e 29 30
e 29 44
e 30 31
e 31 45
e 31 46
e 32 33
e 32 34
e 32 66
e 32 67
e 33 34
e 35 36
e 35 37
e 36 84
e 36 85
e 37 83
e 38 39
e 38 40
e 38 63
e 38 71
e 39 40
e 41 42
e 41 43
e 41 54
e 41 55
e 42 43
e 44 46
e 44 47
e 45 46
e 45 48
e 45 49
e 47 48
e 47 49
e 48 49
e 50 51
e 50 52
e 51 68
e 52 69
e 52 70
e 53 54
e 53 55
e 54 55
e 56 57
e 56 58
e 57 58
e 59 60
e 59 61
e 60 61
e 62 63
e 62 64
e 63 64
e 64 72
e 64 73
e 65 66
e 65 67
e 65 81
e 65 82
e 66 67
e 68 69
e 68 70
e 69 70
e 71 72
e 71 73
e 72 73
e 74 75
e 74 87
e 74 88
e 75 76
e 76 86
e 77 78
e 77 79
e 78 79
e 80 81
e 80 82
e 81 82
e 83 84
e 83 85
e 84 85
e 86 87
e 86 88
e 87 88
